c Generated by SAT Solver
p cnf 5004 2786
101 102 103 104 0
201 202 203 204 0
301 302 303 304 0
401 402 403 404 0
501 502 503 504 0
601 602 603 604 0
701 702 703 704 0
801 802 803 804 0
901 902 903 904 0
1001 1002 1003 1004 0
1101 1102 1103 1104 0
1201 1202 1203 1204 0
1301 1302 1303 1304 0
1401 1402 1403 1404 0
1501 1502 1503 1504 0
1601 1602 1603 1604 0
1701 1702 1703 1704 0
1801 1802 1803 1804 0
1901 1902 1903 1904 0
2001 2002 2003 2004 0
2101 2102 2103 2104 0
2201 2202 2203 2204 0
2301 2302 2303 2304 0
2401 2402 2403 2404 0
2501 2502 2503 2504 0
2601 2602 2603 2604 0
2701 2702 2703 2704 0
2801 2802 2803 2804 0
2901 2902 2903 2904 0
3001 3002 3003 3004 0
3101 3102 3103 3104 0
3201 3202 3203 3204 0
3301 3302 3303 3304 0
3401 3402 3403 3404 0
3501 3502 3503 3504 0
3601 3602 3603 3604 0
3701 3702 3703 3704 0
3801 3802 3803 3804 0
3901 3902 3903 3904 0
4001 4002 4003 4004 0
4101 4102 4103 4104 0
4201 4202 4203 4204 0
4301 4302 4303 4304 0
4401 4402 4403 4404 0
4501 4502 4503 4504 0
4601 4602 4603 4604 0
4701 4702 4703 4704 0
4801 4802 4803 4804 0
4901 4902 4903 4904 0
5001 5002 5003 5004 0
-101 -102 0
-101 -103 0
-101 -104 0
-102 -103 0
-102 -104 0
-103 -104 0
-201 -202 0
-201 -203 0
-201 -204 0
-202 -203 0
-202 -204 0
-203 -204 0
-301 -302 0
-301 -303 0
-301 -304 0
-302 -303 0
-302 -304 0
-303 -304 0
-401 -402 0
-401 -403 0
-401 -404 0
-402 -403 0
-402 -404 0
-403 -404 0
-501 -502 0
-501 -503 0
-501 -504 0
-502 -503 0
-502 -504 0
-503 -504 0
-601 -602 0
-601 -603 0
-601 -604 0
-602 -603 0
-602 -604 0
-603 -604 0
-701 -702 0
-701 -703 0
-701 -704 0
-702 -703 0
-702 -704 0
-703 -704 0
-801 -802 0
-801 -803 0
-801 -804 0
-802 -803 0
-802 -804 0
-803 -804 0
-901 -902 0
-901 -903 0
-901 -904 0
-902 -903 0
-902 -904 0
-903 -904 0
-1001 -1002 0
-1001 -1003 0
-1001 -1004 0
-1002 -1003 0
-1002 -1004 0
-1003 -1004 0
-1101 -1102 0
-1101 -1103 0
-1101 -1104 0
-1102 -1103 0
-1102 -1104 0
-1103 -1104 0
-1201 -1202 0
-1201 -1203 0
-1201 -1204 0
-1202 -1203 0
-1202 -1204 0
-1203 -1204 0
-1301 -1302 0
-1301 -1303 0
-1301 -1304 0
-1302 -1303 0
-1302 -1304 0
-1303 -1304 0
-1401 -1402 0
-1401 -1403 0
-1401 -1404 0
-1402 -1403 0
-1402 -1404 0
-1403 -1404 0
-1501 -1502 0
-1501 -1503 0
-1501 -1504 0
-1502 -1503 0
-1502 -1504 0
-1503 -1504 0
-1601 -1602 0
-1601 -1603 0
-1601 -1604 0
-1602 -1603 0
-1602 -1604 0
-1603 -1604 0
-1701 -1702 0
-1701 -1703 0
-1701 -1704 0
-1702 -1703 0
-1702 -1704 0
-1703 -1704 0
-1801 -1802 0
-1801 -1803 0
-1801 -1804 0
-1802 -1803 0
-1802 -1804 0
-1803 -1804 0
-1901 -1902 0
-1901 -1903 0
-1901 -1904 0
-1902 -1903 0
-1902 -1904 0
-1903 -1904 0
-2001 -2002 0
-2001 -2003 0
-2001 -2004 0
-2002 -2003 0
-2002 -2004 0
-2003 -2004 0
-2101 -2102 0
-2101 -2103 0
-2101 -2104 0
-2102 -2103 0
-2102 -2104 0
-2103 -2104 0
-2201 -2202 0
-2201 -2203 0
-2201 -2204 0
-2202 -2203 0
-2202 -2204 0
-2203 -2204 0
-2301 -2302 0
-2301 -2303 0
-2301 -2304 0
-2302 -2303 0
-2302 -2304 0
-2303 -2304 0
-2401 -2402 0
-2401 -2403 0
-2401 -2404 0
-2402 -2403 0
-2402 -2404 0
-2403 -2404 0
-2501 -2502 0
-2501 -2503 0
-2501 -2504 0
-2502 -2503 0
-2502 -2504 0
-2503 -2504 0
-2601 -2602 0
-2601 -2603 0
-2601 -2604 0
-2602 -2603 0
-2602 -2604 0
-2603 -2604 0
-2701 -2702 0
-2701 -2703 0
-2701 -2704 0
-2702 -2703 0
-2702 -2704 0
-2703 -2704 0
-2801 -2802 0
-2801 -2803 0
-2801 -2804 0
-2802 -2803 0
-2802 -2804 0
-2803 -2804 0
-2901 -2902 0
-2901 -2903 0
-2901 -2904 0
-2902 -2903 0
-2902 -2904 0
-2903 -2904 0
-3001 -3002 0
-3001 -3003 0
-3001 -3004 0
-3002 -3003 0
-3002 -3004 0
-3003 -3004 0
-3101 -3102 0
-3101 -3103 0
-3101 -3104 0
-3102 -3103 0
-3102 -3104 0
-3103 -3104 0
-3201 -3202 0
-3201 -3203 0
-3201 -3204 0
-3202 -3203 0
-3202 -3204 0
-3203 -3204 0
-3301 -3302 0
-3301 -3303 0
-3301 -3304 0
-3302 -3303 0
-3302 -3304 0
-3303 -3304 0
-3401 -3402 0
-3401 -3403 0
-3401 -3404 0
-3402 -3403 0
-3402 -3404 0
-3403 -3404 0
-3501 -3502 0
-3501 -3503 0
-3501 -3504 0
-3502 -3503 0
-3502 -3504 0
-3503 -3504 0
-3601 -3602 0
-3601 -3603 0
-3601 -3604 0
-3602 -3603 0
-3602 -3604 0
-3603 -3604 0
-3701 -3702 0
-3701 -3703 0
-3701 -3704 0
-3702 -3703 0
-3702 -3704 0
-3703 -3704 0
-3801 -3802 0
-3801 -3803 0
-3801 -3804 0
-3802 -3803 0
-3802 -3804 0
-3803 -3804 0
-3901 -3902 0
-3901 -3903 0
-3901 -3904 0
-3902 -3903 0
-3902 -3904 0
-3903 -3904 0
-4001 -4002 0
-4001 -4003 0
-4001 -4004 0
-4002 -4003 0
-4002 -4004 0
-4003 -4004 0
-4101 -4102 0
-4101 -4103 0
-4101 -4104 0
-4102 -4103 0
-4102 -4104 0
-4103 -4104 0
-4201 -4202 0
-4201 -4203 0
-4201 -4204 0
-4202 -4203 0
-4202 -4204 0
-4203 -4204 0
-4301 -4302 0
-4301 -4303 0
-4301 -4304 0
-4302 -4303 0
-4302 -4304 0
-4303 -4304 0
-4401 -4402 0
-4401 -4403 0
-4401 -4404 0
-4402 -4403 0
-4402 -4404 0
-4403 -4404 0
-4501 -4502 0
-4501 -4503 0
-4501 -4504 0
-4502 -4503 0
-4502 -4504 0
-4503 -4504 0
-4601 -4602 0
-4601 -4603 0
-4601 -4604 0
-4602 -4603 0
-4602 -4604 0
-4603 -4604 0
-4701 -4702 0
-4701 -4703 0
-4701 -4704 0
-4702 -4703 0
-4702 -4704 0
-4703 -4704 0
-4801 -4802 0
-4801 -4803 0
-4801 -4804 0
-4802 -4803 0
-4802 -4804 0
-4803 -4804 0
-4901 -4902 0
-4901 -4903 0
-4901 -4904 0
-4902 -4903 0
-4902 -4904 0
-4903 -4904 0
-5001 -5002 0
-5001 -5003 0
-5001 -5004 0
-5002 -5003 0
-5002 -5004 0
-5003 -5004 0
-101 -201 0
-102 -202 0
-103 -203 0
-104 -204 0
-101 -301 0
-102 -302 0
-103 -303 0
-104 -304 0
-101 -401 0
-102 -402 0
-103 -403 0
-104 -404 0
-101 -501 0
-102 -502 0
-103 -503 0
-104 -504 0
-101 -601 0
-102 -602 0
-103 -603 0
-104 -604 0
-101 -801 0
-102 -802 0
-103 -803 0
-104 -804 0
-101 -901 0
-102 -902 0
-103 -903 0
-104 -904 0
-101 -1001 0
-102 -1002 0
-103 -1003 0
-104 -1004 0
-101 -1101 0
-102 -1102 0
-103 -1103 0
-104 -1104 0
-101 -1401 0
-102 -1402 0
-103 -1403 0
-104 -1404 0
-101 -1501 0
-102 -1502 0
-103 -1503 0
-104 -1504 0
-101 -1701 0
-102 -1702 0
-103 -1703 0
-104 -1704 0
-101 -1901 0
-102 -1902 0
-103 -1903 0
-104 -1904 0
-101 -2001 0
-102 -2002 0
-103 -2003 0
-104 -2004 0
-101 -2101 0
-102 -2102 0
-103 -2103 0
-104 -2104 0
-101 -2201 0
-102 -2202 0
-103 -2203 0
-104 -2204 0
-101 -2401 0
-102 -2402 0
-103 -2403 0
-104 -2404 0
-101 -2601 0
-102 -2602 0
-103 -2603 0
-104 -2604 0
-101 -2701 0
-102 -2702 0
-103 -2703 0
-104 -2704 0
-101 -2801 0
-102 -2802 0
-103 -2803 0
-104 -2804 0
-101 -2901 0
-102 -2902 0
-103 -2903 0
-104 -2904 0
-101 -3001 0
-102 -3002 0
-103 -3003 0
-104 -3004 0
-101 -3101 0
-102 -3102 0
-103 -3103 0
-104 -3104 0
-101 -3201 0
-102 -3202 0
-103 -3203 0
-104 -3204 0
-101 -3401 0
-102 -3402 0
-103 -3403 0
-104 -3404 0
-101 -3501 0
-102 -3502 0
-103 -3503 0
-104 -3504 0
-101 -3801 0
-102 -3802 0
-103 -3803 0
-104 -3804 0
-101 -4001 0
-102 -4002 0
-103 -4003 0
-104 -4004 0
-101 -4301 0
-102 -4302 0
-103 -4303 0
-104 -4304 0
-101 -4501 0
-102 -4502 0
-103 -4503 0
-104 -4504 0
-101 -5001 0
-102 -5002 0
-103 -5003 0
-104 -5004 0
-201 -401 0
-202 -402 0
-203 -403 0
-204 -404 0
-201 -601 0
-202 -602 0
-203 -603 0
-204 -604 0
-201 -801 0
-202 -802 0
-203 -803 0
-204 -804 0
-201 -1001 0
-202 -1002 0
-203 -1003 0
-204 -1004 0
-201 -1201 0
-202 -1202 0
-203 -1203 0
-204 -1204 0
-201 -1801 0
-202 -1802 0
-203 -1803 0
-204 -1804 0
-201 -1901 0
-202 -1902 0
-203 -1903 0
-204 -1904 0
-201 -2001 0
-202 -2002 0
-203 -2003 0
-204 -2004 0
-201 -2101 0
-202 -2102 0
-203 -2103 0
-204 -2104 0
-201 -2201 0
-202 -2202 0
-203 -2203 0
-204 -2204 0
-201 -2301 0
-202 -2302 0
-203 -2303 0
-204 -2304 0
-201 -2601 0
-202 -2602 0
-203 -2603 0
-204 -2604 0
-201 -3101 0
-202 -3102 0
-203 -3103 0
-204 -3104 0
-201 -3201 0
-202 -3202 0
-203 -3203 0
-204 -3204 0
-201 -3401 0
-202 -3402 0
-203 -3403 0
-204 -3404 0
-201 -3701 0
-202 -3702 0
-203 -3703 0
-204 -3704 0
-201 -3801 0
-202 -3802 0
-203 -3803 0
-204 -3804 0
-201 -4001 0
-202 -4002 0
-203 -4003 0
-204 -4004 0
-201 -4101 0
-202 -4102 0
-203 -4103 0
-204 -4104 0
-201 -4501 0
-202 -4502 0
-203 -4503 0
-204 -4504 0
-301 -401 0
-302 -402 0
-303 -403 0
-304 -404 0
-301 -601 0
-302 -602 0
-303 -603 0
-304 -604 0
-301 -701 0
-302 -702 0
-303 -703 0
-304 -704 0
-301 -801 0
-302 -802 0
-303 -803 0
-304 -804 0
-301 -1001 0
-302 -1002 0
-303 -1003 0
-304 -1004 0
-301 -1501 0
-302 -1502 0
-303 -1503 0
-304 -1504 0
-301 -1901 0
-302 -1902 0
-303 -1903 0
-304 -1904 0
-301 -2601 0
-302 -2602 0
-303 -2603 0
-304 -2604 0
-301 -2701 0
-302 -2702 0
-303 -2703 0
-304 -2704 0
-301 -3101 0
-302 -3102 0
-303 -3103 0
-304 -3104 0
-301 -3301 0
-302 -3302 0
-303 -3303 0
-304 -3304 0
-301 -3401 0
-302 -3402 0
-303 -3403 0
-304 -3404 0
-301 -3501 0
-302 -3502 0
-303 -3503 0
-304 -3504 0
-301 -3701 0
-302 -3702 0
-303 -3703 0
-304 -3704 0
-301 -3801 0
-302 -3802 0
-303 -3803 0
-304 -3804 0
-301 -3901 0
-302 -3902 0
-303 -3903 0
-304 -3904 0
-301 -4001 0
-302 -4002 0
-303 -4003 0
-304 -4004 0
-301 -4101 0
-302 -4102 0
-303 -4103 0
-304 -4104 0
-301 -4301 0
-302 -4302 0
-303 -4303 0
-304 -4304 0
-301 -4401 0
-302 -4402 0
-303 -4403 0
-304 -4404 0
-301 -4501 0
-302 -4502 0
-303 -4503 0
-304 -4504 0
-301 -4601 0
-302 -4602 0
-303 -4603 0
-304 -4604 0
-301 -4701 0
-302 -4702 0
-303 -4703 0
-304 -4704 0
-301 -4901 0
-302 -4902 0
-303 -4903 0
-304 -4904 0
-401 -601 0
-402 -602 0
-403 -603 0
-404 -604 0
-401 -901 0
-402 -902 0
-403 -903 0
-404 -904 0
-401 -1001 0
-402 -1002 0
-403 -1003 0
-404 -1004 0
-401 -1201 0
-402 -1202 0
-403 -1203 0
-404 -1204 0
-401 -1301 0
-402 -1302 0
-403 -1303 0
-404 -1304 0
-401 -1601 0
-402 -1602 0
-403 -1603 0
-404 -1604 0
-401 -2001 0
-402 -2002 0
-403 -2003 0
-404 -2004 0
-401 -2501 0
-402 -2502 0
-403 -2503 0
-404 -2504 0
-401 -2701 0
-402 -2702 0
-403 -2703 0
-404 -2704 0
-401 -2901 0
-402 -2902 0
-403 -2903 0
-404 -2904 0
-401 -3101 0
-402 -3102 0
-403 -3103 0
-404 -3104 0
-401 -3201 0
-402 -3202 0
-403 -3203 0
-404 -3204 0
-401 -3401 0
-402 -3402 0
-403 -3403 0
-404 -3404 0
-401 -3501 0
-402 -3502 0
-403 -3503 0
-404 -3504 0
-401 -3701 0
-402 -3702 0
-403 -3703 0
-404 -3704 0
-401 -4101 0
-402 -4102 0
-403 -4103 0
-404 -4104 0
-401 -4301 0
-402 -4302 0
-403 -4303 0
-404 -4304 0
-401 -4501 0
-402 -4502 0
-403 -4503 0
-404 -4504 0
-401 -4601 0
-402 -4602 0
-403 -4603 0
-404 -4604 0
-401 -4801 0
-402 -4802 0
-403 -4803 0
-404 -4804 0
-401 -4901 0
-402 -4902 0
-403 -4903 0
-404 -4904 0
-501 -701 0
-502 -702 0
-503 -703 0
-504 -704 0
-501 -801 0
-502 -802 0
-503 -803 0
-504 -804 0
-501 -901 0
-502 -902 0
-503 -903 0
-504 -904 0
-501 -1101 0
-502 -1102 0
-503 -1103 0
-504 -1104 0
-501 -1301 0
-502 -1302 0
-503 -1303 0
-504 -1304 0
-501 -1501 0
-502 -1502 0
-503 -1503 0
-504 -1504 0
-501 -1601 0
-502 -1602 0
-503 -1603 0
-504 -1604 0
-501 -1701 0
-502 -1702 0
-503 -1703 0
-504 -1704 0
-501 -2101 0
-502 -2102 0
-503 -2103 0
-504 -2104 0
-501 -2201 0
-502 -2202 0
-503 -2203 0
-504 -2204 0
-501 -2301 0
-502 -2302 0
-503 -2303 0
-504 -2304 0
-501 -2401 0
-502 -2402 0
-503 -2403 0
-504 -2404 0
-501 -2601 0
-502 -2602 0
-503 -2603 0
-504 -2604 0
-501 -2701 0
-502 -2702 0
-503 -2703 0
-504 -2704 0
-501 -2801 0
-502 -2802 0
-503 -2803 0
-504 -2804 0
-501 -3001 0
-502 -3002 0
-503 -3003 0
-504 -3004 0
-501 -3101 0
-502 -3102 0
-503 -3103 0
-504 -3104 0
-501 -3401 0
-502 -3402 0
-503 -3403 0
-504 -3404 0
-501 -3501 0
-502 -3502 0
-503 -3503 0
-504 -3504 0
-501 -3601 0
-502 -3602 0
-503 -3603 0
-504 -3604 0
-501 -4101 0
-502 -4102 0
-503 -4103 0
-504 -4104 0
-501 -4201 0
-502 -4202 0
-503 -4203 0
-504 -4204 0
-501 -4501 0
-502 -4502 0
-503 -4503 0
-504 -4504 0
-501 -4601 0
-502 -4602 0
-503 -4603 0
-504 -4604 0
-501 -4701 0
-502 -4702 0
-503 -4703 0
-504 -4704 0
-501 -4901 0
-502 -4902 0
-503 -4903 0
-504 -4904 0
-501 -5001 0
-502 -5002 0
-503 -5003 0
-504 -5004 0
-601 -801 0
-602 -802 0
-603 -803 0
-604 -804 0
-601 -901 0
-602 -902 0
-603 -903 0
-604 -904 0
-601 -1001 0
-602 -1002 0
-603 -1003 0
-604 -1004 0
-601 -1101 0
-602 -1102 0
-603 -1103 0
-604 -1104 0
-601 -1201 0
-602 -1202 0
-603 -1203 0
-604 -1204 0
-601 -1801 0
-602 -1802 0
-603 -1803 0
-604 -1804 0
-601 -2101 0
-602 -2102 0
-603 -2103 0
-604 -2104 0
-601 -2201 0
-602 -2202 0
-603 -2203 0
-604 -2204 0
-601 -2301 0
-602 -2302 0
-603 -2303 0
-604 -2304 0
-601 -2901 0
-602 -2902 0
-603 -2903 0
-604 -2904 0
-601 -3101 0
-602 -3102 0
-603 -3103 0
-604 -3104 0
-601 -3301 0
-602 -3302 0
-603 -3303 0
-604 -3304 0
-601 -3401 0
-602 -3402 0
-603 -3403 0
-604 -3404 0
-601 -3601 0
-602 -3602 0
-603 -3603 0
-604 -3604 0
-601 -3701 0
-602 -3702 0
-603 -3703 0
-604 -3704 0
-601 -4001 0
-602 -4002 0
-603 -4003 0
-604 -4004 0
-601 -4301 0
-602 -4302 0
-603 -4303 0
-604 -4304 0
-601 -4701 0
-602 -4702 0
-603 -4703 0
-604 -4704 0
-601 -5001 0
-602 -5002 0
-603 -5003 0
-604 -5004 0
-701 -1001 0
-702 -1002 0
-703 -1003 0
-704 -1004 0
-701 -1101 0
-702 -1102 0
-703 -1103 0
-704 -1104 0
-701 -1401 0
-702 -1402 0
-703 -1403 0
-704 -1404 0
-701 -1801 0
-702 -1802 0
-703 -1803 0
-704 -1804 0
-701 -1901 0
-702 -1902 0
-703 -1903 0
-704 -1904 0
-701 -2001 0
-702 -2002 0
-703 -2003 0
-704 -2004 0
-701 -2101 0
-702 -2102 0
-703 -2103 0
-704 -2104 0
-701 -2301 0
-702 -2302 0
-703 -2303 0
-704 -2304 0
-701 -2801 0
-702 -2802 0
-703 -2803 0
-704 -2804 0
-701 -2901 0
-702 -2902 0
-703 -2903 0
-704 -2904 0
-701 -3201 0
-702 -3202 0
-703 -3203 0
-704 -3204 0
-701 -3301 0
-702 -3302 0
-703 -3303 0
-704 -3304 0
-701 -3401 0
-702 -3402 0
-703 -3403 0
-704 -3404 0
-701 -3901 0
-702 -3902 0
-703 -3903 0
-704 -3904 0
-701 -4101 0
-702 -4102 0
-703 -4103 0
-704 -4104 0
-701 -4201 0
-702 -4202 0
-703 -4203 0
-704 -4204 0
-701 -4301 0
-702 -4302 0
-703 -4303 0
-704 -4304 0
-701 -4501 0
-702 -4502 0
-703 -4503 0
-704 -4504 0
-701 -4601 0
-702 -4602 0
-703 -4603 0
-704 -4604 0
-701 -4801 0
-702 -4802 0
-703 -4803 0
-704 -4804 0
-801 -1301 0
-802 -1302 0
-803 -1303 0
-804 -1304 0
-801 -1401 0
-802 -1402 0
-803 -1403 0
-804 -1404 0
-801 -1501 0
-802 -1502 0
-803 -1503 0
-804 -1504 0
-801 -1601 0
-802 -1602 0
-803 -1603 0
-804 -1604 0
-801 -1701 0
-802 -1702 0
-803 -1703 0
-804 -1704 0
-801 -1901 0
-802 -1902 0
-803 -1903 0
-804 -1904 0
-801 -2001 0
-802 -2002 0
-803 -2003 0
-804 -2004 0
-801 -2101 0
-802 -2102 0
-803 -2103 0
-804 -2104 0
-801 -2201 0
-802 -2202 0
-803 -2203 0
-804 -2204 0
-801 -2301 0
-802 -2302 0
-803 -2303 0
-804 -2304 0
-801 -2401 0
-802 -2402 0
-803 -2403 0
-804 -2404 0
-801 -2601 0
-802 -2602 0
-803 -2603 0
-804 -2604 0
-801 -2801 0
-802 -2802 0
-803 -2803 0
-804 -2804 0
-801 -2901 0
-802 -2902 0
-803 -2903 0
-804 -2904 0
-801 -3001 0
-802 -3002 0
-803 -3003 0
-804 -3004 0
-801 -3501 0
-802 -3502 0
-803 -3503 0
-804 -3504 0
-801 -3601 0
-802 -3602 0
-803 -3603 0
-804 -3604 0
-801 -3701 0
-802 -3702 0
-803 -3703 0
-804 -3704 0
-801 -4401 0
-802 -4402 0
-803 -4403 0
-804 -4404 0
-801 -4501 0
-802 -4502 0
-803 -4503 0
-804 -4504 0
-801 -4701 0
-802 -4702 0
-803 -4703 0
-804 -4704 0
-801 -4801 0
-802 -4802 0
-803 -4803 0
-804 -4804 0
-801 -4901 0
-802 -4902 0
-803 -4903 0
-804 -4904 0
-901 -1101 0
-902 -1102 0
-903 -1103 0
-904 -1104 0
-901 -1501 0
-902 -1502 0
-903 -1503 0
-904 -1504 0
-901 -1701 0
-902 -1702 0
-903 -1703 0
-904 -1704 0
-901 -1801 0
-902 -1802 0
-903 -1803 0
-904 -1804 0
-901 -1901 0
-902 -1902 0
-903 -1903 0
-904 -1904 0
-901 -2401 0
-902 -2402 0
-903 -2403 0
-904 -2404 0
-901 -2701 0
-902 -2702 0
-903 -2703 0
-904 -2704 0
-901 -3101 0
-902 -3102 0
-903 -3103 0
-904 -3104 0
-901 -3301 0
-902 -3302 0
-903 -3303 0
-904 -3304 0
-901 -3501 0
-902 -3502 0
-903 -3503 0
-904 -3504 0
-901 -4101 0
-902 -4102 0
-903 -4103 0
-904 -4104 0
-901 -4501 0
-902 -4502 0
-903 -4503 0
-904 -4504 0
-901 -4701 0
-902 -4702 0
-903 -4703 0
-904 -4704 0
-901 -4801 0
-902 -4802 0
-903 -4803 0
-904 -4804 0
-901 -5001 0
-902 -5002 0
-903 -5003 0
-904 -5004 0
-1001 -1201 0
-1002 -1202 0
-1003 -1203 0
-1004 -1204 0
-1001 -1601 0
-1002 -1602 0
-1003 -1603 0
-1004 -1604 0
-1001 -1901 0
-1002 -1902 0
-1003 -1903 0
-1004 -1904 0
-1001 -2001 0
-1002 -2002 0
-1003 -2003 0
-1004 -2004 0
-1001 -2301 0
-1002 -2302 0
-1003 -2303 0
-1004 -2304 0
-1001 -2601 0
-1002 -2602 0
-1003 -2603 0
-1004 -2604 0
-1001 -2901 0
-1002 -2902 0
-1003 -2903 0
-1004 -2904 0
-1001 -3001 0
-1002 -3002 0
-1003 -3003 0
-1004 -3004 0
-1001 -3101 0
-1002 -3102 0
-1003 -3103 0
-1004 -3104 0
-1001 -3301 0
-1002 -3302 0
-1003 -3303 0
-1004 -3304 0
-1001 -3401 0
-1002 -3402 0
-1003 -3403 0
-1004 -3404 0
-1001 -3501 0
-1002 -3502 0
-1003 -3503 0
-1004 -3504 0
-1001 -3601 0
-1002 -3602 0
-1003 -3603 0
-1004 -3604 0
-1001 -3701 0
-1002 -3702 0
-1003 -3703 0
-1004 -3704 0
-1001 -4001 0
-1002 -4002 0
-1003 -4003 0
-1004 -4004 0
-1001 -4601 0
-1002 -4602 0
-1003 -4603 0
-1004 -4604 0
-1101 -1301 0
-1102 -1302 0
-1103 -1303 0
-1104 -1304 0
-1101 -1601 0
-1102 -1602 0
-1103 -1603 0
-1104 -1604 0
-1101 -2001 0
-1102 -2002 0
-1103 -2003 0
-1104 -2004 0
-1101 -2101 0
-1102 -2102 0
-1103 -2103 0
-1104 -2104 0
-1101 -2301 0
-1102 -2302 0
-1103 -2303 0
-1104 -2304 0
-1101 -2401 0
-1102 -2402 0
-1103 -2403 0
-1104 -2404 0
-1101 -2701 0
-1102 -2702 0
-1103 -2703 0
-1104 -2704 0
-1101 -3001 0
-1102 -3002 0
-1103 -3003 0
-1104 -3004 0
-1101 -3101 0
-1102 -3102 0
-1103 -3103 0
-1104 -3104 0
-1101 -3201 0
-1102 -3202 0
-1103 -3203 0
-1104 -3204 0
-1101 -3301 0
-1102 -3302 0
-1103 -3303 0
-1104 -3304 0
-1101 -3601 0
-1102 -3602 0
-1103 -3603 0
-1104 -3604 0
-1101 -4101 0
-1102 -4102 0
-1103 -4103 0
-1104 -4104 0
-1101 -4201 0
-1102 -4202 0
-1103 -4203 0
-1104 -4204 0
-1101 -4301 0
-1102 -4302 0
-1103 -4303 0
-1104 -4304 0
-1101 -4401 0
-1102 -4402 0
-1103 -4403 0
-1104 -4404 0
-1101 -4501 0
-1102 -4502 0
-1103 -4503 0
-1104 -4504 0
-1101 -4601 0
-1102 -4602 0
-1103 -4603 0
-1104 -4604 0
-1101 -4701 0
-1102 -4702 0
-1103 -4703 0
-1104 -4704 0
-1101 -5001 0
-1102 -5002 0
-1103 -5003 0
-1104 -5004 0
-1201 -1401 0
-1202 -1402 0
-1203 -1403 0
-1204 -1404 0
-1201 -1701 0
-1202 -1702 0
-1203 -1703 0
-1204 -1704 0
-1201 -1801 0
-1202 -1802 0
-1203 -1803 0
-1204 -1804 0
-1201 -1901 0
-1202 -1902 0
-1203 -1903 0
-1204 -1904 0
-1201 -2001 0
-1202 -2002 0
-1203 -2003 0
-1204 -2004 0
-1201 -2101 0
-1202 -2102 0
-1203 -2103 0
-1204 -2104 0
-1201 -2301 0
-1202 -2302 0
-1203 -2303 0
-1204 -2304 0
-1201 -2501 0
-1202 -2502 0
-1203 -2503 0
-1204 -2504 0
-1201 -3201 0
-1202 -3202 0
-1203 -3203 0
-1204 -3204 0
-1201 -3401 0
-1202 -3402 0
-1203 -3403 0
-1204 -3404 0
-1201 -4001 0
-1202 -4002 0
-1203 -4003 0
-1204 -4004 0
-1201 -4101 0
-1202 -4102 0
-1203 -4103 0
-1204 -4104 0
-1201 -4301 0
-1202 -4302 0
-1203 -4303 0
-1204 -4304 0
-1201 -4601 0
-1202 -4602 0
-1203 -4603 0
-1204 -4604 0
-1201 -4701 0
-1202 -4702 0
-1203 -4703 0
-1204 -4704 0
-1301 -1401 0
-1302 -1402 0
-1303 -1403 0
-1304 -1404 0
-1301 -1501 0
-1302 -1502 0
-1303 -1503 0
-1304 -1504 0
-1301 -1701 0
-1302 -1702 0
-1303 -1703 0
-1304 -1704 0
-1301 -1801 0
-1302 -1802 0
-1303 -1803 0
-1304 -1804 0
-1301 -2001 0
-1302 -2002 0
-1303 -2003 0
-1304 -2004 0
-1301 -2201 0
-1302 -2202 0
-1303 -2203 0
-1304 -2204 0
-1301 -2301 0
-1302 -2302 0
-1303 -2303 0
-1304 -2304 0
-1301 -2401 0
-1302 -2402 0
-1303 -2403 0
-1304 -2404 0
-1301 -2501 0
-1302 -2502 0
-1303 -2503 0
-1304 -2504 0
-1301 -2601 0
-1302 -2602 0
-1303 -2603 0
-1304 -2604 0
-1301 -3301 0
-1302 -3302 0
-1303 -3303 0
-1304 -3304 0
-1301 -4001 0
-1302 -4002 0
-1303 -4003 0
-1304 -4004 0
-1301 -4101 0
-1302 -4102 0
-1303 -4103 0
-1304 -4104 0
-1301 -5001 0
-1302 -5002 0
-1303 -5003 0
-1304 -5004 0
-1401 -1501 0
-1402 -1502 0
-1403 -1503 0
-1404 -1504 0
-1401 -1601 0
-1402 -1602 0
-1403 -1603 0
-1404 -1604 0
-1401 -1701 0
-1402 -1702 0
-1403 -1703 0
-1404 -1704 0
-1401 -1801 0
-1402 -1802 0
-1403 -1803 0
-1404 -1804 0
-1401 -2101 0
-1402 -2102 0
-1403 -2103 0
-1404 -2104 0
-1401 -2201 0
-1402 -2202 0
-1403 -2203 0
-1404 -2204 0
-1401 -2801 0
-1402 -2802 0
-1403 -2803 0
-1404 -2804 0
-1401 -2901 0
-1402 -2902 0
-1403 -2903 0
-1404 -2904 0
-1401 -3101 0
-1402 -3102 0
-1403 -3103 0
-1404 -3104 0
-1401 -3201 0
-1402 -3202 0
-1403 -3203 0
-1404 -3204 0
-1401 -3401 0
-1402 -3402 0
-1403 -3403 0
-1404 -3404 0
-1401 -3601 0
-1402 -3602 0
-1403 -3603 0
-1404 -3604 0
-1401 -3701 0
-1402 -3702 0
-1403 -3703 0
-1404 -3704 0
-1401 -3801 0
-1402 -3802 0
-1403 -3803 0
-1404 -3804 0
-1401 -3901 0
-1402 -3902 0
-1403 -3903 0
-1404 -3904 0
-1401 -4001 0
-1402 -4002 0
-1403 -4003 0
-1404 -4004 0
-1401 -4101 0
-1402 -4102 0
-1403 -4103 0
-1404 -4104 0
-1401 -4201 0
-1402 -4202 0
-1403 -4203 0
-1404 -4204 0
-1401 -4301 0
-1402 -4302 0
-1403 -4303 0
-1404 -4304 0
-1401 -4801 0
-1402 -4802 0
-1403 -4803 0
-1404 -4804 0
-1401 -4901 0
-1402 -4902 0
-1403 -4903 0
-1404 -4904 0
-1501 -1601 0
-1502 -1602 0
-1503 -1603 0
-1504 -1604 0
-1501 -1701 0
-1502 -1702 0
-1503 -1703 0
-1504 -1704 0
-1501 -1801 0
-1502 -1802 0
-1503 -1803 0
-1504 -1804 0
-1501 -1901 0
-1502 -1902 0
-1503 -1903 0
-1504 -1904 0
-1501 -2001 0
-1502 -2002 0
-1503 -2003 0
-1504 -2004 0
-1501 -2101 0
-1502 -2102 0
-1503 -2103 0
-1504 -2104 0
-1501 -2301 0
-1502 -2302 0
-1503 -2303 0
-1504 -2304 0
-1501 -2401 0
-1502 -2402 0
-1503 -2403 0
-1504 -2404 0
-1501 -2901 0
-1502 -2902 0
-1503 -2903 0
-1504 -2904 0
-1501 -3001 0
-1502 -3002 0
-1503 -3003 0
-1504 -3004 0
-1501 -3301 0
-1502 -3302 0
-1503 -3303 0
-1504 -3304 0
-1501 -3501 0
-1502 -3502 0
-1503 -3503 0
-1504 -3504 0
-1501 -3701 0
-1502 -3702 0
-1503 -3703 0
-1504 -3704 0
-1501 -3901 0
-1502 -3902 0
-1503 -3903 0
-1504 -3904 0
-1501 -4101 0
-1502 -4102 0
-1503 -4103 0
-1504 -4104 0
-1501 -4301 0
-1502 -4302 0
-1503 -4303 0
-1504 -4304 0
-1501 -4401 0
-1502 -4402 0
-1503 -4403 0
-1504 -4404 0
-1501 -4501 0
-1502 -4502 0
-1503 -4503 0
-1504 -4504 0
-1601 -2001 0
-1602 -2002 0
-1603 -2003 0
-1604 -2004 0
-1601 -2201 0
-1602 -2202 0
-1603 -2203 0
-1604 -2204 0
-1601 -2601 0
-1602 -2602 0
-1603 -2603 0
-1604 -2604 0
-1601 -2701 0
-1602 -2702 0
-1603 -2703 0
-1604 -2704 0
-1601 -2901 0
-1602 -2902 0
-1603 -2903 0
-1604 -2904 0
-1601 -3001 0
-1602 -3002 0
-1603 -3003 0
-1604 -3004 0
-1601 -3101 0
-1602 -3102 0
-1603 -3103 0
-1604 -3104 0
-1601 -3401 0
-1602 -3402 0
-1603 -3403 0
-1604 -3404 0
-1601 -3601 0
-1602 -3602 0
-1603 -3603 0
-1604 -3604 0
-1601 -3701 0
-1602 -3702 0
-1603 -3703 0
-1604 -3704 0
-1601 -3801 0
-1602 -3802 0
-1603 -3803 0
-1604 -3804 0
-1601 -3901 0
-1602 -3902 0
-1603 -3903 0
-1604 -3904 0
-1601 -4001 0
-1602 -4002 0
-1603 -4003 0
-1604 -4004 0
-1601 -4301 0
-1602 -4302 0
-1603 -4303 0
-1604 -4304 0
-1601 -4501 0
-1602 -4502 0
-1603 -4503 0
-1604 -4504 0
-1601 -4701 0
-1602 -4702 0
-1603 -4703 0
-1604 -4704 0
-1601 -4801 0
-1602 -4802 0
-1603 -4803 0
-1604 -4804 0
-1601 -4901 0
-1602 -4902 0
-1603 -4903 0
-1604 -4904 0
-1601 -5001 0
-1602 -5002 0
-1603 -5003 0
-1604 -5004 0
-1701 -2001 0
-1702 -2002 0
-1703 -2003 0
-1704 -2004 0
-1701 -2101 0
-1702 -2102 0
-1703 -2103 0
-1704 -2104 0
-1701 -2201 0
-1702 -2202 0
-1703 -2203 0
-1704 -2204 0
-1701 -2301 0
-1702 -2302 0
-1703 -2303 0
-1704 -2304 0
-1701 -2401 0
-1702 -2402 0
-1703 -2403 0
-1704 -2404 0
-1701 -2501 0
-1702 -2502 0
-1703 -2503 0
-1704 -2504 0
-1701 -2701 0
-1702 -2702 0
-1703 -2703 0
-1704 -2704 0
-1701 -3001 0
-1702 -3002 0
-1703 -3003 0
-1704 -3004 0
-1701 -3101 0
-1702 -3102 0
-1703 -3103 0
-1704 -3104 0
-1701 -3201 0
-1702 -3202 0
-1703 -3203 0
-1704 -3204 0
-1701 -3401 0
-1702 -3402 0
-1703 -3403 0
-1704 -3404 0
-1701 -3601 0
-1702 -3602 0
-1703 -3603 0
-1704 -3604 0
-1701 -3701 0
-1702 -3702 0
-1703 -3703 0
-1704 -3704 0
-1701 -3801 0
-1702 -3802 0
-1703 -3803 0
-1704 -3804 0
-1701 -4101 0
-1702 -4102 0
-1703 -4103 0
-1704 -4104 0
-1701 -4201 0
-1702 -4202 0
-1703 -4203 0
-1704 -4204 0
-1701 -4301 0
-1702 -4302 0
-1703 -4303 0
-1704 -4304 0
-1701 -4501 0
-1702 -4502 0
-1703 -4503 0
-1704 -4504 0
-1701 -4701 0
-1702 -4702 0
-1703 -4703 0
-1704 -4704 0
-1801 -2001 0
-1802 -2002 0
-1803 -2003 0
-1804 -2004 0
-1801 -2101 0
-1802 -2102 0
-1803 -2103 0
-1804 -2104 0
-1801 -2301 0
-1802 -2302 0
-1803 -2303 0
-1804 -2304 0
-1801 -2601 0
-1802 -2602 0
-1803 -2603 0
-1804 -2604 0
-1801 -2701 0
-1802 -2702 0
-1803 -2703 0
-1804 -2704 0
-1801 -2901 0
-1802 -2902 0
-1803 -2903 0
-1804 -2904 0
-1801 -3001 0
-1802 -3002 0
-1803 -3003 0
-1804 -3004 0
-1801 -3401 0
-1802 -3402 0
-1803 -3403 0
-1804 -3404 0
-1801 -3501 0
-1802 -3502 0
-1803 -3503 0
-1804 -3504 0
-1801 -3601 0
-1802 -3602 0
-1803 -3603 0
-1804 -3604 0
-1801 -4001 0
-1802 -4002 0
-1803 -4003 0
-1804 -4004 0
-1801 -4201 0
-1802 -4202 0
-1803 -4203 0
-1804 -4204 0
-1801 -4501 0
-1802 -4502 0
-1803 -4503 0
-1804 -4504 0
-1901 -2001 0
-1902 -2002 0
-1903 -2003 0
-1904 -2004 0
-1901 -2101 0
-1902 -2102 0
-1903 -2103 0
-1904 -2104 0
-1901 -2301 0
-1902 -2302 0
-1903 -2303 0
-1904 -2304 0
-1901 -3001 0
-1902 -3002 0
-1903 -3003 0
-1904 -3004 0
-1901 -3101 0
-1902 -3102 0
-1903 -3103 0
-1904 -3104 0
-1901 -3301 0
-1902 -3302 0
-1903 -3303 0
-1904 -3304 0
-1901 -3401 0
-1902 -3402 0
-1903 -3403 0
-1904 -3404 0
-1901 -3601 0
-1902 -3602 0
-1903 -3603 0
-1904 -3604 0
-1901 -3701 0
-1902 -3702 0
-1903 -3703 0
-1904 -3704 0
-1901 -3901 0
-1902 -3902 0
-1903 -3903 0
-1904 -3904 0
-1901 -4101 0
-1902 -4102 0
-1903 -4103 0
-1904 -4104 0
-1901 -4201 0
-1902 -4202 0
-1903 -4203 0
-1904 -4204 0
-1901 -4301 0
-1902 -4302 0
-1903 -4303 0
-1904 -4304 0
-1901 -4401 0
-1902 -4402 0
-1903 -4403 0
-1904 -4404 0
-1901 -4701 0
-1902 -4702 0
-1903 -4703 0
-1904 -4704 0
-1901 -4801 0
-1902 -4802 0
-1903 -4803 0
-1904 -4804 0
-1901 -4901 0
-1902 -4902 0
-1903 -4903 0
-1904 -4904 0
-2001 -2101 0
-2002 -2102 0
-2003 -2103 0
-2004 -2104 0
-2001 -2201 0
-2002 -2202 0
-2003 -2203 0
-2004 -2204 0
-2001 -2701 0
-2002 -2702 0
-2003 -2703 0
-2004 -2704 0
-2001 -2901 0
-2002 -2902 0
-2003 -2903 0
-2004 -2904 0
-2001 -3001 0
-2002 -3002 0
-2003 -3003 0
-2004 -3004 0
-2001 -3801 0
-2002 -3802 0
-2003 -3803 0
-2004 -3804 0
-2001 -3901 0
-2002 -3902 0
-2003 -3903 0
-2004 -3904 0
-2001 -4001 0
-2002 -4002 0
-2003 -4003 0
-2004 -4004 0
-2001 -4301 0
-2002 -4302 0
-2003 -4303 0
-2004 -4304 0
-2001 -5001 0
-2002 -5002 0
-2003 -5003 0
-2004 -5004 0
-2101 -2201 0
-2102 -2202 0
-2103 -2203 0
-2104 -2204 0
-2101 -2301 0
-2102 -2302 0
-2103 -2303 0
-2104 -2304 0
-2101 -2501 0
-2102 -2502 0
-2103 -2503 0
-2104 -2504 0
-2101 -2801 0
-2102 -2802 0
-2103 -2803 0
-2104 -2804 0
-2101 -2901 0
-2102 -2902 0
-2103 -2903 0
-2104 -2904 0
-2101 -3001 0
-2102 -3002 0
-2103 -3003 0
-2104 -3004 0
-2101 -3101 0
-2102 -3102 0
-2103 -3103 0
-2104 -3104 0
-2101 -3301 0
-2102 -3302 0
-2103 -3303 0
-2104 -3304 0
-2101 -3401 0
-2102 -3402 0
-2103 -3403 0
-2104 -3404 0
-2101 -3501 0
-2102 -3502 0
-2103 -3503 0
-2104 -3504 0
-2101 -3601 0
-2102 -3602 0
-2103 -3603 0
-2104 -3604 0
-2101 -4201 0
-2102 -4202 0
-2103 -4203 0
-2104 -4204 0
-2101 -4301 0
-2102 -4302 0
-2103 -4303 0
-2104 -4304 0
-2101 -4501 0
-2102 -4502 0
-2103 -4503 0
-2104 -4504 0
-2101 -4601 0
-2102 -4602 0
-2103 -4603 0
-2104 -4604 0
-2101 -4801 0
-2102 -4802 0
-2103 -4803 0
-2104 -4804 0
-2101 -4901 0
-2102 -4902 0
-2103 -4903 0
-2104 -4904 0
-2101 -5001 0
-2102 -5002 0
-2103 -5003 0
-2104 -5004 0
-2201 -2401 0
-2202 -2402 0
-2203 -2403 0
-2204 -2404 0
-2201 -2801 0
-2202 -2802 0
-2203 -2803 0
-2204 -2804 0
-2201 -2901 0
-2202 -2902 0
-2203 -2903 0
-2204 -2904 0
-2201 -3201 0
-2202 -3202 0
-2203 -3203 0
-2204 -3204 0
-2201 -3301 0
-2202 -3302 0
-2203 -3303 0
-2204 -3304 0
-2201 -3801 0
-2202 -3802 0
-2203 -3803 0
-2204 -3804 0
-2201 -4001 0
-2202 -4002 0
-2203 -4003 0
-2204 -4004 0
-2201 -4301 0
-2202 -4302 0
-2203 -4303 0
-2204 -4304 0
-2201 -4401 0
-2202 -4402 0
-2203 -4403 0
-2204 -4404 0
-2201 -4701 0
-2202 -4702 0
-2203 -4703 0
-2204 -4704 0
-2301 -3001 0
-2302 -3002 0
-2303 -3003 0
-2304 -3004 0
-2301 -3101 0
-2302 -3102 0
-2303 -3103 0
-2304 -3104 0
-2301 -3301 0
-2302 -3302 0
-2303 -3303 0
-2304 -3304 0
-2301 -3701 0
-2302 -3702 0
-2303 -3703 0
-2304 -3704 0
-2301 -3801 0
-2302 -3802 0
-2303 -3803 0
-2304 -3804 0
-2301 -4001 0
-2302 -4002 0
-2303 -4003 0
-2304 -4004 0
-2301 -4201 0
-2302 -4202 0
-2303 -4203 0
-2304 -4204 0
-2301 -4601 0
-2302 -4602 0
-2303 -4603 0
-2304 -4604 0
-2301 -5001 0
-2302 -5002 0
-2303 -5003 0
-2304 -5004 0
-2401 -2601 0
-2402 -2602 0
-2403 -2603 0
-2404 -2604 0
-2401 -2901 0
-2402 -2902 0
-2403 -2903 0
-2404 -2904 0
-2401 -3001 0
-2402 -3002 0
-2403 -3003 0
-2404 -3004 0
-2401 -3101 0
-2402 -3102 0
-2403 -3103 0
-2404 -3104 0
-2401 -3201 0
-2402 -3202 0
-2403 -3203 0
-2404 -3204 0
-2401 -3401 0
-2402 -3402 0
-2403 -3403 0
-2404 -3404 0
-2401 -3501 0
-2402 -3502 0
-2403 -3503 0
-2404 -3504 0
-2401 -3601 0
-2402 -3602 0
-2403 -3603 0
-2404 -3604 0
-2401 -3701 0
-2402 -3702 0
-2403 -3703 0
-2404 -3704 0
-2401 -4001 0
-2402 -4002 0
-2403 -4003 0
-2404 -4004 0
-2401 -4201 0
-2402 -4202 0
-2403 -4203 0
-2404 -4204 0
-2401 -4301 0
-2402 -4302 0
-2403 -4303 0
-2404 -4304 0
-2401 -4501 0
-2402 -4502 0
-2403 -4503 0
-2404 -4504 0
-2401 -4801 0
-2402 -4802 0
-2403 -4803 0
-2404 -4804 0
-2401 -5001 0
-2402 -5002 0
-2403 -5003 0
-2404 -5004 0
-2501 -2701 0
-2502 -2702 0
-2503 -2703 0
-2504 -2704 0
-2501 -2801 0
-2502 -2802 0
-2503 -2803 0
-2504 -2804 0
-2501 -2901 0
-2502 -2902 0
-2503 -2903 0
-2504 -2904 0
-2501 -3101 0
-2502 -3102 0
-2503 -3103 0
-2504 -3104 0
-2501 -3201 0
-2502 -3202 0
-2503 -3203 0
-2504 -3204 0
-2501 -3501 0
-2502 -3502 0
-2503 -3503 0
-2504 -3504 0
-2501 -3601 0
-2502 -3602 0
-2503 -3603 0
-2504 -3604 0
-2501 -3701 0
-2502 -3702 0
-2503 -3703 0
-2504 -3704 0
-2501 -3801 0
-2502 -3802 0
-2503 -3803 0
-2504 -3804 0
-2501 -3901 0
-2502 -3902 0
-2503 -3903 0
-2504 -3904 0
-2501 -4001 0
-2502 -4002 0
-2503 -4003 0
-2504 -4004 0
-2501 -4301 0
-2502 -4302 0
-2503 -4303 0
-2504 -4304 0
-2501 -4401 0
-2502 -4402 0
-2503 -4403 0
-2504 -4404 0
-2501 -4501 0
-2502 -4502 0
-2503 -4503 0
-2504 -4504 0
-2501 -4901 0
-2502 -4902 0
-2503 -4903 0
-2504 -4904 0
-2601 -2701 0
-2602 -2702 0
-2603 -2703 0
-2604 -2704 0
-2601 -3001 0
-2602 -3002 0
-2603 -3003 0
-2604 -3004 0
-2601 -3201 0
-2602 -3202 0
-2603 -3203 0
-2604 -3204 0
-2601 -3401 0
-2602 -3402 0
-2603 -3403 0
-2604 -3404 0
-2601 -3701 0
-2602 -3702 0
-2603 -3703 0
-2604 -3704 0
-2601 -4101 0
-2602 -4102 0
-2603 -4103 0
-2604 -4104 0
-2601 -4601 0
-2602 -4602 0
-2603 -4603 0
-2604 -4604 0
-2601 -4801 0
-2602 -4802 0
-2603 -4803 0
-2604 -4804 0
-2601 -4901 0
-2602 -4902 0
-2603 -4903 0
-2604 -4904 0
-2701 -3001 0
-2702 -3002 0
-2703 -3003 0
-2704 -3004 0
-2701 -3101 0
-2702 -3102 0
-2703 -3103 0
-2704 -3104 0
-2701 -3201 0
-2702 -3202 0
-2703 -3203 0
-2704 -3204 0
-2701 -3301 0
-2702 -3302 0
-2703 -3303 0
-2704 -3304 0
-2701 -3401 0
-2702 -3402 0
-2703 -3403 0
-2704 -3404 0
-2701 -3501 0
-2702 -3502 0
-2703 -3503 0
-2704 -3504 0
-2701 -3901 0
-2702 -3902 0
-2703 -3903 0
-2704 -3904 0
-2701 -4001 0
-2702 -4002 0
-2703 -4003 0
-2704 -4004 0
-2701 -4101 0
-2702 -4102 0
-2703 -4103 0
-2704 -4104 0
-2701 -4201 0
-2702 -4202 0
-2703 -4203 0
-2704 -4204 0
-2701 -4301 0
-2702 -4302 0
-2703 -4303 0
-2704 -4304 0
-2701 -4501 0
-2702 -4502 0
-2703 -4503 0
-2704 -4504 0
-2701 -4801 0
-2702 -4802 0
-2703 -4803 0
-2704 -4804 0
-2701 -4901 0
-2702 -4902 0
-2703 -4903 0
-2704 -4904 0
-2701 -5001 0
-2702 -5002 0
-2703 -5003 0
-2704 -5004 0
-2801 -3001 0
-2802 -3002 0
-2803 -3003 0
-2804 -3004 0
-2801 -3101 0
-2802 -3102 0
-2803 -3103 0
-2804 -3104 0
-2801 -3301 0
-2802 -3302 0
-2803 -3303 0
-2804 -3304 0
-2801 -3401 0
-2802 -3402 0
-2803 -3403 0
-2804 -3404 0
-2801 -3501 0
-2802 -3502 0
-2803 -3503 0
-2804 -3504 0
-2801 -3601 0
-2802 -3602 0
-2803 -3603 0
-2804 -3604 0
-2801 -3801 0
-2802 -3802 0
-2803 -3803 0
-2804 -3804 0
-2801 -3901 0
-2802 -3902 0
-2803 -3903 0
-2804 -3904 0
-2801 -4701 0
-2802 -4702 0
-2803 -4703 0
-2804 -4704 0
-2801 -4901 0
-2802 -4902 0
-2803 -4903 0
-2804 -4904 0
-2801 -5001 0
-2802 -5002 0
-2803 -5003 0
-2804 -5004 0
-2901 -3101 0
-2902 -3102 0
-2903 -3103 0
-2904 -3104 0
-2901 -3401 0
-2902 -3402 0
-2903 -3403 0
-2904 -3404 0
-2901 -3601 0
-2902 -3602 0
-2903 -3603 0
-2904 -3604 0
-2901 -3901 0
-2902 -3902 0
-2903 -3903 0
-2904 -3904 0
-2901 -4001 0
-2902 -4002 0
-2903 -4003 0
-2904 -4004 0
-2901 -4401 0
-2902 -4402 0
-2903 -4403 0
-2904 -4404 0
-2901 -4501 0
-2902 -4502 0
-2903 -4503 0
-2904 -4504 0
-2901 -4601 0
-2902 -4602 0
-2903 -4603 0
-2904 -4604 0
-2901 -5001 0
-2902 -5002 0
-2903 -5003 0
-2904 -5004 0
-3001 -3501 0
-3002 -3502 0
-3003 -3503 0
-3004 -3504 0
-3001 -3601 0
-3002 -3602 0
-3003 -3603 0
-3004 -3604 0
-3001 -3701 0
-3002 -3702 0
-3003 -3703 0
-3004 -3704 0
-3001 -3901 0
-3002 -3902 0
-3003 -3903 0
-3004 -3904 0
-3001 -4401 0
-3002 -4402 0
-3003 -4403 0
-3004 -4404 0
-3001 -4501 0
-3002 -4502 0
-3003 -4503 0
-3004 -4504 0
-3001 -4701 0
-3002 -4702 0
-3003 -4703 0
-3004 -4704 0
-3001 -4801 0
-3002 -4802 0
-3003 -4803 0
-3004 -4804 0
-3001 -5001 0
-3002 -5002 0
-3003 -5003 0
-3004 -5004 0
-3101 -3201 0
-3102 -3202 0
-3103 -3203 0
-3104 -3204 0
-3101 -3501 0
-3102 -3502 0
-3103 -3503 0
-3104 -3504 0
-3101 -3701 0
-3102 -3702 0
-3103 -3703 0
-3104 -3704 0
-3101 -3801 0
-3102 -3802 0
-3103 -3803 0
-3104 -3804 0
-3101 -4001 0
-3102 -4002 0
-3103 -4003 0
-3104 -4004 0
-3101 -4201 0
-3102 -4202 0
-3103 -4203 0
-3104 -4204 0
-3101 -4401 0
-3102 -4402 0
-3103 -4403 0
-3104 -4404 0
-3101 -4501 0
-3102 -4502 0
-3103 -4503 0
-3104 -4504 0
-3101 -4601 0
-3102 -4602 0
-3103 -4603 0
-3104 -4604 0
-3201 -3501 0
-3202 -3502 0
-3203 -3503 0
-3204 -3504 0
-3201 -3701 0
-3202 -3702 0
-3203 -3703 0
-3204 -3704 0
-3201 -3901 0
-3202 -3902 0
-3203 -3903 0
-3204 -3904 0
-3201 -4101 0
-3202 -4102 0
-3203 -4103 0
-3204 -4104 0
-3201 -4201 0
-3202 -4202 0
-3203 -4203 0
-3204 -4204 0
-3201 -4701 0
-3202 -4702 0
-3203 -4703 0
-3204 -4704 0
-3201 -4801 0
-3202 -4802 0
-3203 -4803 0
-3204 -4804 0
-3301 -3401 0
-3302 -3402 0
-3303 -3403 0
-3304 -3404 0
-3301 -3501 0
-3302 -3502 0
-3303 -3503 0
-3304 -3504 0
-3301 -3701 0
-3302 -3702 0
-3303 -3703 0
-3304 -3704 0
-3301 -4101 0
-3302 -4102 0
-3303 -4103 0
-3304 -4104 0
-3301 -4401 0
-3302 -4402 0
-3303 -4403 0
-3304 -4404 0
-3301 -4501 0
-3302 -4502 0
-3303 -4503 0
-3304 -4504 0
-3301 -4601 0
-3302 -4602 0
-3303 -4603 0
-3304 -4604 0
-3301 -4701 0
-3302 -4702 0
-3303 -4703 0
-3304 -4704 0
-3301 -4801 0
-3302 -4802 0
-3303 -4803 0
-3304 -4804 0
-3301 -4901 0
-3302 -4902 0
-3303 -4903 0
-3304 -4904 0
-3301 -5001 0
-3302 -5002 0
-3303 -5003 0
-3304 -5004 0
-3401 -3501 0
-3402 -3502 0
-3403 -3503 0
-3404 -3504 0
-3401 -3801 0
-3402 -3802 0
-3403 -3803 0
-3404 -3804 0
-3401 -3901 0
-3402 -3902 0
-3403 -3903 0
-3404 -3904 0
-3401 -4001 0
-3402 -4002 0
-3403 -4003 0
-3404 -4004 0
-3401 -4201 0
-3402 -4202 0
-3403 -4203 0
-3404 -4204 0
-3401 -4301 0
-3402 -4302 0
-3403 -4303 0
-3404 -4304 0
-3401 -4401 0
-3402 -4402 0
-3403 -4403 0
-3404 -4404 0
-3401 -4601 0
-3402 -4602 0
-3403 -4603 0
-3404 -4604 0
-3501 -3601 0
-3502 -3602 0
-3503 -3603 0
-3504 -3604 0
-3501 -3801 0
-3502 -3802 0
-3503 -3803 0
-3504 -3804 0
-3501 -3901 0
-3502 -3902 0
-3503 -3903 0
-3504 -3904 0
-3501 -4001 0
-3502 -4002 0
-3503 -4003 0
-3504 -4004 0
-3501 -4101 0
-3502 -4102 0
-3503 -4103 0
-3504 -4104 0
-3501 -4201 0
-3502 -4202 0
-3503 -4203 0
-3504 -4204 0
-3501 -4301 0
-3502 -4302 0
-3503 -4303 0
-3504 -4304 0
-3501 -4601 0
-3502 -4602 0
-3503 -4603 0
-3504 -4604 0
-3501 -4701 0
-3502 -4702 0
-3503 -4703 0
-3504 -4704 0
-3501 -4901 0
-3502 -4902 0
-3503 -4903 0
-3504 -4904 0
-3601 -3801 0
-3602 -3802 0
-3603 -3803 0
-3604 -3804 0
-3601 -3901 0
-3602 -3902 0
-3603 -3903 0
-3604 -3904 0
-3601 -4201 0
-3602 -4202 0
-3603 -4203 0
-3604 -4204 0
-3601 -4301 0
-3602 -4302 0
-3603 -4303 0
-3604 -4304 0
-3601 -4401 0
-3602 -4402 0
-3603 -4403 0
-3604 -4404 0
-3601 -4601 0
-3602 -4602 0
-3603 -4603 0
-3604 -4604 0
-3601 -4701 0
-3602 -4702 0
-3603 -4703 0
-3604 -4704 0
-3601 -4801 0
-3602 -4802 0
-3603 -4803 0
-3604 -4804 0
-3601 -4901 0
-3602 -4902 0
-3603 -4903 0
-3604 -4904 0
-3701 -4001 0
-3702 -4002 0
-3703 -4003 0
-3704 -4004 0
-3701 -4101 0
-3702 -4102 0
-3703 -4103 0
-3704 -4104 0
-3701 -4201 0
-3702 -4202 0
-3703 -4203 0
-3704 -4204 0
-3701 -4401 0
-3702 -4402 0
-3703 -4403 0
-3704 -4404 0
-3701 -4501 0
-3702 -4502 0
-3703 -4503 0
-3704 -4504 0
-3701 -4601 0
-3702 -4602 0
-3703 -4603 0
-3704 -4604 0
-3701 -4701 0
-3702 -4702 0
-3703 -4703 0
-3704 -4704 0
-3701 -4801 0
-3702 -4802 0
-3703 -4803 0
-3704 -4804 0
-3701 -5001 0
-3702 -5002 0
-3703 -5003 0
-3704 -5004 0
-3801 -4001 0
-3802 -4002 0
-3803 -4003 0
-3804 -4004 0
-3801 -4201 0
-3802 -4202 0
-3803 -4203 0
-3804 -4204 0
-3801 -4501 0
-3802 -4502 0
-3803 -4503 0
-3804 -4504 0
-3801 -4601 0
-3802 -4602 0
-3803 -4603 0
-3804 -4604 0
-3801 -5001 0
-3802 -5002 0
-3803 -5003 0
-3804 -5004 0
-3901 -4101 0
-3902 -4102 0
-3903 -4103 0
-3904 -4104 0
-3901 -4401 0
-3902 -4402 0
-3903 -4403 0
-3904 -4404 0
-3901 -4601 0
-3902 -4602 0
-3903 -4603 0
-3904 -4604 0
-3901 -4701 0
-3902 -4702 0
-3903 -4703 0
-3904 -4704 0
-3901 -4801 0
-3902 -4802 0
-3903 -4803 0
-3904 -4804 0
-3901 -4901 0
-3902 -4902 0
-3903 -4903 0
-3904 -4904 0
-3901 -5001 0
-3902 -5002 0
-3903 -5003 0
-3904 -5004 0
-4001 -4101 0
-4002 -4102 0
-4003 -4103 0
-4004 -4104 0
-4001 -4201 0
-4002 -4202 0
-4003 -4203 0
-4004 -4204 0
-4001 -4401 0
-4002 -4402 0
-4003 -4403 0
-4004 -4404 0
-4001 -4701 0
-4002 -4702 0
-4003 -4703 0
-4004 -4704 0
-4001 -4901 0
-4002 -4902 0
-4003 -4903 0
-4004 -4904 0
-4001 -5001 0
-4002 -5002 0
-4003 -5003 0
-4004 -5004 0
-4101 -4201 0
-4102 -4202 0
-4103 -4203 0
-4104 -4204 0
-4101 -4301 0
-4102 -4302 0
-4103 -4303 0
-4104 -4304 0
-4101 -4401 0
-4102 -4402 0
-4103 -4403 0
-4104 -4404 0
-4101 -4501 0
-4102 -4502 0
-4103 -4503 0
-4104 -4504 0
-4101 -4901 0
-4102 -4902 0
-4103 -4903 0
-4104 -4904 0
-4101 -5001 0
-4102 -5002 0
-4103 -5003 0
-4104 -5004 0
-4201 -4401 0
-4202 -4402 0
-4203 -4403 0
-4204 -4404 0
-4201 -4501 0
-4202 -4502 0
-4203 -4503 0
-4204 -4504 0
-4201 -4801 0
-4202 -4802 0
-4203 -4803 0
-4204 -4804 0
-4201 -4901 0
-4202 -4902 0
-4203 -4903 0
-4204 -4904 0
-4301 -4401 0
-4302 -4402 0
-4303 -4403 0
-4304 -4404 0
-4301 -4601 0
-4302 -4602 0
-4303 -4603 0
-4304 -4604 0
-4301 -4701 0
-4302 -4702 0
-4303 -4703 0
-4304 -4704 0
-4301 -4801 0
-4302 -4802 0
-4303 -4803 0
-4304 -4804 0
-4301 -4901 0
-4302 -4902 0
-4303 -4903 0
-4304 -4904 0
-4401 -4501 0
-4402 -4502 0
-4403 -4503 0
-4404 -4504 0
-4401 -4701 0
-4402 -4702 0
-4403 -4703 0
-4404 -4704 0
-4401 -4901 0
-4402 -4902 0
-4403 -4903 0
-4404 -4904 0
-4401 -5001 0
-4402 -5002 0
-4403 -5003 0
-4404 -5004 0
-4501 -4601 0
-4502 -4602 0
-4503 -4603 0
-4504 -4604 0
-4501 -4901 0
-4502 -4902 0
-4503 -4903 0
-4504 -4904 0
-4501 -5001 0
-4502 -5002 0
-4503 -5003 0
-4504 -5004 0
-4601 -4701 0
-4602 -4702 0
-4603 -4703 0
-4604 -4704 0
-4701 -4801 0
-4702 -4802 0
-4703 -4803 0
-4704 -4804 0
-4701 -4901 0
-4702 -4902 0
-4703 -4903 0
-4704 -4904 0
-4901 -5001 0
-4902 -5002 0
-4903 -5003 0
-4904 -5004 0
